S = 3;
G = 2;
N = 4;
Capacity = array2d(1..3, 1..2, [15, 20, 20, 15, 5, 17]);
Population = array2d(1..4, 1..2, [7, 19, 4, 12, 9, 2, 6, 8]);
Distance = array2d(1..4, 1..3, [5.2, 4.0, 3.1, 3.8, 5.5, 6.1, 4.2, 3.5, 5.0, 5.0, 4.1, 3.2]);
